c colouring generated by benchmark framework
p edge 36 290
v 1 6
v 2 0
v 3 2
v 4 1
v 5 5
v 6 4
v 7 5
v 8 4
v 9 3
v 10 6
v 11 0
v 12 2
v 13 0
v 14 2
v 15 1
v 16 5
v 17 4
v 18 3
v 19 4
v 20 3
v 21 6
v 22 0
v 23 2
v 24 1
v 25 2
v 26 1
v 27 5
v 28 4
v 29 3
v 30 6
v 31 3
v 32 6
v 33 0
v 34 2
v 35 1
v 36 5
